p cnf 24 30
-21 -2 23 0
-11 18 23 0
-7 19 18 0
-17 -8 -2 0
-23 15 10 0
12 18 -23 0
-16 -19 -22 0
-2 -3 -11 0
-4 -17 -24 0
-21 -14 -18 0
-10 -23 8 0
8 3 24 0
-15 -5 14 0
-4 -13 8 0
17 8 7 0
-7 -18 5 0
-5 -13 -21 0
-12 4 -14 0
4 5 11 0
16 -24 -22 0
-15 24 11 0
2 16 -18 0
-5 -15 -9 0
17 14 20 0
14 5 7 0
15 -9 12 0
-2 -6 14 0
-12 -19 15 0
9 18 21 0
4 -9 3 0
